c ./../WCSP/WQUEENS/wqueens8_6.wcsp
h 1 2 3 4 5 6 7 8 0
h 9 10 11 12 13 14 15 16 0
h 17 18 19 20 21 22 23 24 0
h 25 26 27 28 29 30 31 32 0
h 33 34 35 36 37 38 39 40 0
h 41 42 43 44 45 46 47 48 0
h 49 50 51 52 53 54 55 56 0
h 57 58 59 60 61 62 63 64 0
h -1 -9 0
h -1 -10 0
h -2 -9 0
h -2 -10 0
h -2 -11 0
h -3 -10 0
h -3 -11 0
h -3 -12 0
h -4 -11 0
h -4 -12 0
h -4 -13 0
h -5 -12 0
h -5 -13 0
h -5 -14 0
h -6 -13 0
h -6 -14 0
h -6 -15 0
h -7 -14 0
h -7 -15 0
h -7 -16 0
h -8 -15 0
h -8 -16 0
h -1 -17 0
h -1 -19 0
h -2 -18 0
h -2 -20 0
h -3 -17 0
h -3 -19 0
h -3 -21 0
h -4 -18 0
h -4 -20 0
h -4 -22 0
h -5 -19 0
h -5 -21 0
h -5 -23 0
h -6 -20 0
h -6 -22 0
h -6 -24 0
h -7 -21 0
h -7 -23 0
h -8 -22 0
h -8 -24 0
h -1 -25 0
h -1 -28 0
h -2 -26 0
h -2 -29 0
h -3 -27 0
h -3 -30 0
h -4 -25 0
h -4 -28 0
h -4 -31 0
h -5 -26 0
h -5 -29 0
h -5 -32 0
h -6 -27 0
h -6 -30 0
h -7 -28 0
h -7 -31 0
h -8 -29 0
h -8 -32 0
h -1 -33 0
h -1 -37 0
h -2 -34 0
h -2 -38 0
h -3 -35 0
h -3 -39 0
h -4 -36 0
h -4 -40 0
h -5 -33 0
h -5 -37 0
h -6 -34 0
h -6 -38 0
h -7 -35 0
h -7 -39 0
h -8 -36 0
h -8 -40 0
h -1 -41 0
h -1 -46 0
h -2 -42 0
h -2 -47 0
h -3 -43 0
h -3 -48 0
h -4 -44 0
h -5 -45 0
h -6 -41 0
h -6 -46 0
h -7 -42 0
h -7 -47 0
h -8 -43 0
h -8 -48 0
h -1 -49 0
h -1 -55 0
h -2 -50 0
h -2 -56 0
h -3 -51 0
h -4 -52 0
h -5 -53 0
h -6 -54 0
h -7 -49 0
h -7 -55 0
h -8 -50 0
h -8 -56 0
h -1 -57 0
h -1 -64 0
h -2 -58 0
h -3 -59 0
h -4 -60 0
h -5 -61 0
h -6 -62 0
h -7 -63 0
h -8 -57 0
h -8 -64 0
h -9 -17 0
h -9 -18 0
h -10 -17 0
h -10 -18 0
h -10 -19 0
h -11 -18 0
h -11 -19 0
h -11 -20 0
h -12 -19 0
h -12 -20 0
h -12 -21 0
h -13 -20 0
h -13 -21 0
h -13 -22 0
h -14 -21 0
h -14 -22 0
h -14 -23 0
h -15 -22 0
h -15 -23 0
h -15 -24 0
h -16 -23 0
h -16 -24 0
h -9 -25 0
h -9 -27 0
h -10 -26 0
h -10 -28 0
h -11 -25 0
h -11 -27 0
h -11 -29 0
h -12 -26 0
h -12 -28 0
h -12 -30 0
h -13 -27 0
h -13 -29 0
h -13 -31 0
h -14 -28 0
h -14 -30 0
h -14 -32 0
h -15 -29 0
h -15 -31 0
h -16 -30 0
h -16 -32 0
h -9 -33 0
h -9 -36 0
h -10 -34 0
h -10 -37 0
h -11 -35 0
h -11 -38 0
h -12 -33 0
h -12 -36 0
h -12 -39 0
h -13 -34 0
h -13 -37 0
h -13 -40 0
h -14 -35 0
h -14 -38 0
h -15 -36 0
h -15 -39 0
h -16 -37 0
h -16 -40 0
h -9 -41 0
h -9 -45 0
h -10 -42 0
h -10 -46 0
h -11 -43 0
h -11 -47 0
h -12 -44 0
h -12 -48 0
h -13 -41 0
h -13 -45 0
h -14 -42 0
h -14 -46 0
h -15 -43 0
h -15 -47 0
h -16 -44 0
h -16 -48 0
h -9 -49 0
h -9 -54 0
h -10 -50 0
h -10 -55 0
h -11 -51 0
h -11 -56 0
h -12 -52 0
h -13 -53 0
h -14 -49 0
h -14 -54 0
h -15 -50 0
h -15 -55 0
h -16 -51 0
h -16 -56 0
h -9 -57 0
h -9 -63 0
h -10 -58 0
h -10 -64 0
h -11 -59 0
h -12 -60 0
h -13 -61 0
h -14 -62 0
h -15 -57 0
h -15 -63 0
h -16 -58 0
h -16 -64 0
h -17 -25 0
h -17 -26 0
h -18 -25 0
h -18 -26 0
h -18 -27 0
h -19 -26 0
h -19 -27 0
h -19 -28 0
h -20 -27 0
h -20 -28 0
h -20 -29 0
h -21 -28 0
h -21 -29 0
h -21 -30 0
h -22 -29 0
h -22 -30 0
h -22 -31 0
h -23 -30 0
h -23 -31 0
h -23 -32 0
h -24 -31 0
h -24 -32 0
h -17 -33 0
h -17 -35 0
h -18 -34 0
h -18 -36 0
h -19 -33 0
h -19 -35 0
h -19 -37 0
h -20 -34 0
h -20 -36 0
h -20 -38 0
h -21 -35 0
h -21 -37 0
h -21 -39 0
h -22 -36 0
h -22 -38 0
h -22 -40 0
h -23 -37 0
h -23 -39 0
h -24 -38 0
h -24 -40 0
h -17 -41 0
h -17 -44 0
h -18 -42 0
h -18 -45 0
h -19 -43 0
h -19 -46 0
h -20 -41 0
h -20 -44 0
h -20 -47 0
h -21 -42 0
h -21 -45 0
h -21 -48 0
h -22 -43 0
h -22 -46 0
h -23 -44 0
h -23 -47 0
h -24 -45 0
h -24 -48 0
h -17 -49 0
h -17 -53 0
h -18 -50 0
h -18 -54 0
h -19 -51 0
h -19 -55 0
h -20 -52 0
h -20 -56 0
h -21 -49 0
h -21 -53 0
h -22 -50 0
h -22 -54 0
h -23 -51 0
h -23 -55 0
h -24 -52 0
h -24 -56 0
h -17 -57 0
h -17 -62 0
h -18 -58 0
h -18 -63 0
h -19 -59 0
h -19 -64 0
h -20 -60 0
h -21 -61 0
h -22 -57 0
h -22 -62 0
h -23 -58 0
h -23 -63 0
h -24 -59 0
h -24 -64 0
h -25 -33 0
h -25 -34 0
h -26 -33 0
h -26 -34 0
h -26 -35 0
h -27 -34 0
h -27 -35 0
h -27 -36 0
h -28 -35 0
h -28 -36 0
h -28 -37 0
h -29 -36 0
h -29 -37 0
h -29 -38 0
h -30 -37 0
h -30 -38 0
h -30 -39 0
h -31 -38 0
h -31 -39 0
h -31 -40 0
h -32 -39 0
h -32 -40 0
h -25 -41 0
h -25 -43 0
h -26 -42 0
h -26 -44 0
h -27 -41 0
h -27 -43 0
h -27 -45 0
h -28 -42 0
h -28 -44 0
h -28 -46 0
h -29 -43 0
h -29 -45 0
h -29 -47 0
h -30 -44 0
h -30 -46 0
h -30 -48 0
h -31 -45 0
h -31 -47 0
h -32 -46 0
h -32 -48 0
h -25 -49 0
h -25 -52 0
h -26 -50 0
h -26 -53 0
h -27 -51 0
h -27 -54 0
h -28 -49 0
h -28 -52 0
h -28 -55 0
h -29 -50 0
h -29 -53 0
h -29 -56 0
h -30 -51 0
h -30 -54 0
h -31 -52 0
h -31 -55 0
h -32 -53 0
h -32 -56 0
h -25 -57 0
h -25 -61 0
h -26 -58 0
h -26 -62 0
h -27 -59 0
h -27 -63 0
h -28 -60 0
h -28 -64 0
h -29 -57 0
h -29 -61 0
h -30 -58 0
h -30 -62 0
h -31 -59 0
h -31 -63 0
h -32 -60 0
h -32 -64 0
h -33 -41 0
h -33 -42 0
h -34 -41 0
h -34 -42 0
h -34 -43 0
h -35 -42 0
h -35 -43 0
h -35 -44 0
h -36 -43 0
h -36 -44 0
h -36 -45 0
h -37 -44 0
h -37 -45 0
h -37 -46 0
h -38 -45 0
h -38 -46 0
h -38 -47 0
h -39 -46 0
h -39 -47 0
h -39 -48 0
h -40 -47 0
h -40 -48 0
h -33 -49 0
h -33 -51 0
h -34 -50 0
h -34 -52 0
h -35 -49 0
h -35 -51 0
h -35 -53 0
h -36 -50 0
h -36 -52 0
h -36 -54 0
h -37 -51 0
h -37 -53 0
h -37 -55 0
h -38 -52 0
h -38 -54 0
h -38 -56 0
h -39 -53 0
h -39 -55 0
h -40 -54 0
h -40 -56 0
h -33 -57 0
h -33 -60 0
h -34 -58 0
h -34 -61 0
h -35 -59 0
h -35 -62 0
h -36 -57 0
h -36 -60 0
h -36 -63 0
h -37 -58 0
h -37 -61 0
h -37 -64 0
h -38 -59 0
h -38 -62 0
h -39 -60 0
h -39 -63 0
h -40 -61 0
h -40 -64 0
h -41 -49 0
h -41 -50 0
h -42 -49 0
h -42 -50 0
h -42 -51 0
h -43 -50 0
h -43 -51 0
h -43 -52 0
h -44 -51 0
h -44 -52 0
h -44 -53 0
h -45 -52 0
h -45 -53 0
h -45 -54 0
h -46 -53 0
h -46 -54 0
h -46 -55 0
h -47 -54 0
h -47 -55 0
h -47 -56 0
h -48 -55 0
h -48 -56 0
h -41 -57 0
h -41 -59 0
h -42 -58 0
h -42 -60 0
h -43 -57 0
h -43 -59 0
h -43 -61 0
h -44 -58 0
h -44 -60 0
h -44 -62 0
h -45 -59 0
h -45 -61 0
h -45 -63 0
h -46 -60 0
h -46 -62 0
h -46 -64 0
h -47 -61 0
h -47 -63 0
h -48 -62 0
h -48 -64 0
h -49 -57 0
h -49 -58 0
h -50 -57 0
h -50 -58 0
h -50 -59 0
h -51 -58 0
h -51 -59 0
h -51 -60 0
h -52 -59 0
h -52 -60 0
h -52 -61 0
h -53 -60 0
h -53 -61 0
h -53 -62 0
h -54 -61 0
h -54 -62 0
h -54 -63 0
h -55 -62 0
h -55 -63 0
h -55 -64 0
h -56 -63 0
h -56 -64 0
1 -1 0
1 -2 0
1 -3 0
1 -4 0
1 -5 0
1 -6 0
1 -9 0
1 -10 0
1 -11 0
1 -12 0
1 -14 0
1 -15 0
1 -17 0
1 -18 0
1 -20 0
1 -22 0
1 -23 0
1 -24 0
1 -26 0
1 -27 0
1 -28 0
1 -29 0
1 -31 0
1 -32 0
1 -33 0
1 -34 0
1 -35 0
1 -36 0
1 -37 0
1 -40 0
1 -41 0
1 -42 0
1 -43 0
1 -44 0
1 -46 0
1 -47 0
1 -49 0
1 -51 0
1 -52 0
1 -53 0
1 -54 0
1 -56 0
1 -57 0
1 -58 0
1 -59 0
1 -60 0
1 -62 0
1 -64 0
